variable	pot string ${args}
next		args
variable	e1 string ${args}
next		args
variable	e2 string ${args}
next		args
variable	x equal ${args}
next		args
variable	y equal ${args}
variable	frac equal $y/($x+$y)
next		args
variable	siz equal ${args}
variable	s equal ${args}*10/2
next		args
variable	T1 equal ${args}
next            args
variable        quench_ramp equal ${args}

variable	th equal ${T1}/10
variable	dr equal ${T1}*2

variable        T2 equal (2000-300)*((10^3)/(${quench_ramp})) #0.1K/ps quench rate at 1 atm pressure
variable	substratefile string "data/data.substrate_multi_${siz}nm"

variable	half_film_thick equal 15														#ATTENTION

#--------------------------------------------------------------------------------INTIALISE
units           metal
dimension       3
atom_style      atomic
fix		layrs all property/atom i_lyr
boundary        p p p
lattice		bcc 3.6

processors	* * *
read_restart	data/restart.equilib1_${siz}nm

newton		on
pair_style	eam/fs
pair_coeff      * * ${pot} ${e1} ${e2} ${e1} ${e2}

#--------------------------------------------------------------------------------COMPUTES
compute         c1 all temp
#compute	c2 subst xrd 1.5406 Cu Zr 2Theta 10 80 c 1 1 1 LP 1 echo
compute_modify  c1 dynamic/dof yes extra/dof 0

#--------------------------------------------------------------------------------THERMO
thermo_style    custom step pe ke press temp
thermo_modify   format float "% .6e"
thermo_modify   temp c1
thermo          ${th}
timestep        0.001

#--------------------------------------------------------------------------------MINIMISE
dump            d1 all custom ${dr} data/sub_whole_${siz}nm.lammpstrj id type x y z vx vy vz
min_style	fire
minimize	1e-10  1e-10  100  100
#minimize	1.0e-4 1.0e-6 1000 1000
#reset_timestep	0

#--------------------------------------------------------------------------------MAKE GLASS
fix		quench all npt temp 2000 300 0.1 iso 0 0 0.1 #1.01325 1.01325 0.1
variable	t equal ${T2}/100
variable	tstop equal $(step)+${T2}
variable	qloop loop 100
label		l2
run		$t start $(step) stop ${tstop} pre yes post no
write_restart	data/restart.quench_${siz}nm
print		"Successful run iteration ${qloop}" append data/success.quench_${siz}nm screen yes
next		qloop
jump		in.substrate_multi l2
unfix		quench

#-------------------------------------------------------------------------------MAKE LAYERS
#This part of the model changes for the single deposition and multiple deposition models
variable	zma equal $(zhi)
variable	zmi equal $(zlo)

variable	l3 equal $(zlo)+abs($(zlo)/5)
variable	l2 equal ($(zhi)-${l3})*(0.67)+${l3}
variable	l1 equal ${l2}+($(zhi)-${l3})*(0.33)

#variable        l3 equal $(zlo)+(0.9)*abs($(zlo))											#ATTENTION
#variable        l2 equal ($(zhi)-${l3})*(0.60)+${l3}
#variable        l1 equal ${l2}+($(zhi)-${l3})*(0.40)

print		"zlo $(zlo) and l3 ${l3} and l2 ${l2}" screen yes file data/layers.dat

#variable	l3 equal ${zmi}+(5)/3.6
#variable	l2 equal (${zhi}-${l3})*(0.67)+${l3}
#variable	l1 equal ${l2}+(${zma}-${l3})*(0.33)

change_box      all z delta -3 2 units box #boundary p p f

#Layers for multiple depositions
region		ly1 block INF INF INF INF ${l2} INF units box
region		ly2 block INF INF INF INF ${l3} ${l2} units box
region		ly3 block INF INF INF INF INF ${l3} units box

group		buffr region ly1
group		statd region ly2
group		fixed region ly3
group		subst union buffr statd

#velocity        buffr create 300 74657362 mom yes rot yes
fix		f1 buffr nve
#fix		f2 statd nve
#fix		f3 statd langevin 300 300 0.001
fix		f3 statd nvt temp 300 300 0.01
velocity        fixed set NULL NULL NULL
fix		f4 fixed setforce 0 0 0

change_box      all boundary p p f units box
#change_box	all x delta 1 -1 y delta 1 -1 z delta 1 1 boundary p p f units box

set		group buffr i_lyr 1
set		group statd i_lyr 2
set		group fixed i_lyr 3

#---------------------------------------------------------------------------DUMP AND WRITE DATA
write_dump all atom dump.atom
dump            d2 all custom ${dr} data/sub_final_${siz}nm.lammpstrj id type x y z vx vy vz i_lyr

#---------------------------------------------------------------------------BALANCE
comm_style      tiled
balance		1.02 rcb weight group 1 fixed 0.05 out data/tmp.balance1_substrate_${siz}nm

#---------------------------------------------------------------------------EQUILIBRATE
variable	tstop equal $(step)+${T1}
variable	qloop loop 10
label		l3
run		${t1} start $(step) stop ${tstop} pre yes post no
write_restart	data/restart.equilib2_${siz}nm
print		"Successful run iteration ${qloop}" append data/success.equilib2_${siz}nm screen yes
next		qloop
jump		in.substrate_multi l3

write_restart	data/restart.substrate_multi_${siz}nm
write_data	${substratefile}
#write_restart	restart.bulk
#write_restart	restart.mpiio.bulk
#write_data	data.bulk pair ij
